p cep 124 2288
1 2
1 3
1 4
1 6
1 7
1 20
1 23
1 24
1 26
1 31
1 43
1 44
1 51
1 54
1 55
1 58
1 59
1 62
1 64
1 68
1 70
1 74
1 81
1 87
1 88
1 93
1 96
1 98
1 101
1 104
1 105
1 116
1 117
1 121
1 123
1 124
2 3
2 4
2 5
2 7
2 9
2 14
2 15
2 17
2 18
2 20
2 21
2 23
2 25
2 26
2 29
2 30
2 31
2 32
2 39
2 42
2 43
2 44
2 45
2 47
2 51
2 52
2 55
2 56
2 57
2 58
2 60
2 61
2 64
2 65
2 69
2 74
2 83
2 84
2 87
2 88
2 93
2 95
2 96
2 98
2 100
2 101
2 105
2 106
2 108
2 116
2 121
2 122
2 124
3 4
3 5
3 20
3 25
3 26
3 27
3 32
3 36
3 43
3 44
3 47
3 51
3 56
3 58
3 61
3 62
3 64
3 68
3 73
3 87
3 90
3 97
3 98
3 101
3 102
3 103
3 108
3 111
3 119
3 121
3 124
4 5
4 7
4 9
4 10
4 17
4 18
4 20
4 25
4 30
4 31
4 43
4 44
4 45
4 47
4 51
4 52
4 53
4 55
4 56
4 57
4 60
4 64
4 65
4 69
4 74
4 84
4 87
4 88
4 93
4 95
4 96
4 97
4 98
4 100
4 101
4 106
4 108
4 116
4 119
4 121
4 122
4 123
4 124
5 9
5 14
5 16
5 17
5 18
5 20
5 21
5 24
5 25
5 27
5 28
5 29
5 32
5 33
5 36
5 41
5 43
5 44
5 46
5 47
5 50
5 51
5 56
5 57
5 60
5 61
5 62
5 64
5 68
5 71
5 72
5 73
5 74
5 75
5 78
5 83
5 84
5 85
5 91
5 92
5 94
5 95
5 97
5 100
5 105
5 106
5 108
5 110
5 111
5 112
5 115
5 117
5 119
5 120
5 121
5 122
5 124
6 8
6 9
6 10
6 15
6 21
6 23
6 26
6 31
6 32
6 34
6 35
6 38
6 39
6 40
6 53
6 54
6 55
6 59
6 61
6 65
6 66
6 68
6 70
6 82
6 83
6 86
6 88
6 91
6 93
6 94
6 96
6 98
6 99
6 104
6 108
6 109
6 112
6 114
6 118
7 9
7 14
7 17
7 18
7 20
7 25
7 30
7 31
7 43
7 44
7 45
7 52
7 56
7 57
7 62
7 64
7 65
7 69
7 72
7 74
7 88
7 95
7 96
7 97
7 100
7 105
7 106
7 121
7 122
7 124
8 9
8 20
8 26
8 33
8 41
8 42
8 43
8 53
8 56
8 61
8 65
8 68
8 72
8 78
8 81
8 85
8 86
8 88
8 91
8 94
8 96
8 100
8 101
8 109
8 110
8 113
8 114
8 115
8 117
8 122
8 124
9 14
9 17
9 18
9 20
9 25
9 26
9 30
9 31
9 43
9 44
9 45
9 47
9 51
9 52
9 55
9 56
9 57
9 58
9 59
9 60
9 64
9 65
9 69
9 74
9 81
9 87
9 88
9 93
9 94
9 95
9 96
9 97
9 100
9 101
9 105
9 106
9 113
9 122
9 124
10 18
10 20
10 23
10 26
10 31
10 32
10 39
10 43
10 44
10 54
10 55
10 58
10 65
10 66
10 67
10 68
10 71
10 74
10 82
10 84
10 88
10 98
10 103
10 104
10 106
10 113
10 116
11 15
11 16
11 19
11 21
11 22
11 26
11 27
11 28
11 31
11 32
11 33
11 37
11 41
11 49
11 50
11 65
11 73
11 78
11 81
11 83
11 85
11 96
11 97
11 102
11 104
11 105
11 111
11 112
11 120
11 121
11 123
12 29
12 53
12 72
12 91
12 94
12 110
12 113
12 115
13 23
13 26
13 34
13 35
13 38
13 40
13 48
13 59
13 63
13 65
13 66
13 68
13 70
13 89
14 15
14 16
14 18
14 22
14 25
14 29
14 32
14 36
14 43
14 44
14 46
14 47
14 53
14 56
14 57
14 60
14 62
14 71
14 73
14 74
14 75
14 82
14 83
14 84
14 97
14 100
14 105
14 106
14 110
14 111
14 119
14 121
14 122
14 124
15 16
15 19
15 20
15 21
15 23
15 24
15 25
15 28
15 39
15 42
15 43
15 46
15 47
15 50
15 51
15 56
15 61
15 62
15 67
15 68
15 73
15 74
15 75
15 77
15 82
15 83
15 84
15 88
15 93
15 97
15 101
15 104
15 105
15 107
15 108
15 111
15 112
15 116
15 120
15 121
15 122
15 123
15 124
16 19
16 20
16 21
16 24
16 25
16 28
16 29
16 30
16 36
16 39
16 41
16 46
16 47
16 50
16 55
16 64
16 74
16 75
16 77
16 78
16 83
16 84
16 85
16 88
16 92
16 96
16 97
16 104
16 105
16 108
16 111
16 112
16 116
16 121
16 122
17 18
17 20
17 25
17 30
17 43
17 44
17 45
17 52
17 56
17 57
17 64
17 69
17 74
17 95
17 96
17 100
17 101
17 105
17 106
17 122
17 124
18 20
18 21
18 25
18 30
18 31
18 43
18 44
18 45
18 47
18 51
18 52
18 55
18 56
18 57
18 60
18 62
18 64
18 67
18 69
18 74
18 84
18 87
18 88
18 95
18 96
18 98
18 100
18 101
18 105
18 106
18 116
18 122
18 124
19 24
19 26
19 28
19 33
19 41
19 46
19 50
19 56
19 60
19 62
19 75
19 77
19 78
19 83
19 84
19 85
19 86
19 88
19 96
19 97
19 109
19 111
19 114
19 116
19 119
19 121
19 122
20 23
20 25
20 26
20 30
20 31
20 39
20 42
20 43
20 44
20 45
20 46
20 47
20 51
20 52
20 56
20 57
20 61
20 62
20 64
20 65
20 67
20 69
20 74
20 77
20 82
20 83
20 84
20 88
20 93
20 95
20 96
20 97
20 98
20 100
20 101
20 105
20 106
20 108
20 116
20 121
20 122
20 123
20 124
21 27
21 29
21 32
21 33
21 34
21 41
21 43
21 47
21 53
21 55
21 56
21 58
21 60
21 61
21 62
21 65
21 67
21 72
21 76
21 77
21 78
21 81
21 83
21 84
21 85
21 86
21 87
21 88
21 91
21 93
21 94
21 98
21 102
21 103
21 105
21 106
21 107
21 108
21 110
21 114
21 115
21 116
21 117
21 118
21 121
21 122
21 124
22 23
22 29
22 32
22 33
22 36
22 41
22 71
22 73
22 77
22 78
22 83
22 85
22 92
22 93
22 97
22 103
22 104
22 105
22 111
22 117
22 121
23 25
23 26
23 31
23 32
23 37
23 38
23 41
23 42
23 51
23 54
23 55
23 56
23 58
23 59
23 62
23 65
23 66
23 67
23 68
23 74
23 78
23 81
23 82
23 83
23 85
23 87
23 88
23 92
23 93
23 96
23 98
23 101
23 103
23 104
23 110
23 111
23 113
23 116
23 118
23 121
23 122
23 123
24 29
24 33
24 37
24 38
24 41
24 46
24 47
24 50
24 51
24 60
24 61
24 71
24 75
24 77
24 78
24 83
24 84
24 85
24 88
24 92
24 94
24 97
24 101
24 104
24 105
24 112
24 113
24 119
24 121
24 122
24 123
25 28
25 29
25 32
25 33
25 36
25 39
25 41
25 42
25 43
25 44
25 45
25 47
25 51
25 52
25 53
25 55
25 56
25 57
25 61
25 62
25 64
25 67
25 69
25 72
25 73
25 74
25 77
25 78
25 82
25 83
25 84
25 85
25 87
25 90
25 95
25 96
25 98
25 100
25 101
25 104
25 105
25 106
25 108
25 110
25 111
25 113
25 116
25 119
25 121
25 122
25 123
25 124
26 27
26 31
26 34
26 35
26 38
26 40
26 41
26 42
26 43
26 46
26 47
26 48
26 51
26 53
26 55
26 58
26 59
26 65
26 66
26 67
26 68
26 70
26 72
26 73
26 77
26 78
26 82
26 83
26 85
26 86
26 88
26 91
26 93
26 94
26 96
26 98
26 101
26 104
26 108
26 109
26 110
26 111
26 114
26 116
26 118
26 121
26 123
27 31
27 33
27 37
27 41
27 49
27 51
27 55
27 61
27 62
27 64
27 73
27 78
27 85
27 91
27 93
27 97
27 101
27 104
27 108
27 111
27 117
28 32
28 41
28 46
28 47
28 50
28 60
28 73
28 77
28 78
28 83
28 84
28 85
28 97
28 111
28 116
28 121
29 32
29 33
29 36
29 37
29 41
29 43
29 47
29 56
29 57
29 60
29 61
29 71
29 72
29 73
29 74
29 77
29 78
29 85
29 91
29 92
29 97
29 100
29 102
29 105
29 108
29 110
29 111
29 112
29 116
29 117
29 119
29 120
29 121
29 124
30 43
30 44
30 45
30 52
30 56
30 57
30 64
30 69
30 74
30 77
30 95
30 96
30 100
30 106
30 122
30 124
31 39
31 41
31 42
31 43
31 44
31 51
31 53
31 54
31 56
31 58
31 59
31 64
31 65
31 67
31 74
31 78
31 81
31 82
31 85
31 87
31 88
31 93
31 95
31 96
31 100
31 101
31 106
31 108
31 111
31 113
31 118
31 121
31 122
31 123
31 124
32 33
32 41
32 46
32 50
32 51
32 55
32 57
32 61
32 62
32 67
32 71
32 73
32 74
32 77
32 78
32 83
32 84
32 85
32 87
32 91
32 92
32 93
32 94
32 101
32 102
32 103
32 104
32 105
32 108
32 111
32 112
32 113
32 116
32 117
32 119
32 121
32 123
33 41
33 46
33 47
33 55
33 60
33 61
33 71
33 72
33 73
33 77
33 78
33 84
33 85
33 86
33 92
33 94
33 98
33 104
33 108
33 109
33 110
33 111
33 114
33 116
33 119
33 121
34 35
34 38
34 40
34 55
34 59
34 63
34 65
34 66
34 68
34 70
34 88
34 98
35 55
35 59
35 65
35 66
35 68
35 70
35 104
36 46
36 50
36 55
36 71
36 73
36 75
36 97
36 105
36 111
36 112
36 119
36 121
37 38
37 46
37 49
37 50
37 58
37 61
37 73
37 81
37 83
37 84
37 88
37 90
37 97
37 104
37 108
37 111
37 112
37 120
37 121
38 40
38 48
38 59
38 63
38 65
38 66
38 68
38 70
38 81
38 82
38 88
38 89
39 42
39 43
39 44
39 51
39 54
39 55
39 60
39 62
39 64
39 67
39 74
39 77
39 82
39 83
39 84
39 87
39 88
39 93
39 98
39 104
39 107
39 113
39 116
39 118
39 124
40 48
40 59
40 63
40 65
40 70
40 77
40 82
40 89
41 46
41 47
41 50
41 55
41 60
41 61
41 67
41 71
41 72
41 73
41 77
41 78
41 81
41 84
41 85
41 86
41 88
41 92
41 97
41 98
41 102
41 103
41 105
41 108
41 109
41 110
41 111
41 113
41 114
41 116
41 117
41 119
41 121
41 123
42 43
42 51
42 53
42 54
42 55
42 59
42 62
42 64
42 65
42 67
42 72
42 74
42 82
42 83
42 86
42 87
42 88
42 91
42 93
42 94
42 98
42 101
42 104
42 109
42 110
42 113
42 114
42 115
42 116
42 118
42 124
43 44
43 45
43 47
43 51
43 52
43 56
43 57
43 58
43 62
43 64
43 65
43 67
43 69
43 74
43 77
43 82
43 83
43 84
43 86
43 87
43 88
43 91
43 94
43 95
43 96
43 97
43 100
43 101
43 105
43 106
43 110
43 113
43 114
43 116
43 121
43 122
43 123
43 124
44 45
44 51
44 52
44 56
44 57
44 61
44 62
44 64
44 65
44 67
44 69
44 72
44 74
44 87
44 88
44 95
44 96
44 97
44 100
44 105
44 106
44 107
44 116
44 122
44 124
45 52
45 56
45 57
45 64
45 69
45 74
45 95
45 96
45 100
45 106
45 122
45 124
46 50
46 60
46 73
46 75
46 77
46 78
46 83
46 84
46 85
46 88
46 90
46 97
46 104
46 111
46 112
46 116
46 121
47 51
47 55
47 56
47 57
47 61
47 62
47 65
47 72
47 73
47 74
47 77
47 78
47 83
47 84
47 85
47 87
47 92
47 101
47 104
47 105
47 106
47 111
47 116
47 120
47 121
47 124
48 63
48 65
48 66
48 70
48 89
49 62
49 67
49 81
49 97
49 102
49 103
49 112
49 120
49 121
50 51
50 60
50 64
50 73
50 75
50 77
50 78
50 83
50 84
50 85
50 88
50 90
50 97
50 98
50 108
50 111
50 119
50 121
51 54
51 55
51 56
51 57
51 58
51 60
51 61
51 62
51 64
51 65
51 67
51 68
51 72
51 73
51 74
51 77
51 82
51 83
51 87
51 88
51 93
51 94
51 97
51 98
51 99
51 101
51 103
51 104
51 106
51 111
51 113
51 117
51 119
51 120
51 121
51 122
51 123
51 124
52 56
52 57
52 64
52 69
52 74
52 95
52 96
52 100
52 106
52 116
52 122
52 124
53 60
53 61
53 65
53 67
53 72
53 82
53 83
53 84
53 86
53 87
53 88
53 91
53 94
53 97
53 104
53 105
53 109
53 110
53 113
53 114
53 115
54 55
54 58
54 67
54 81
54 82
54 87
54 88
54 93
54 98
54 99
54 101
54 103
54 104
54 117
54 123
55 57
55 58
55 59
55 60
55 62
55 64
55 65
55 66
55 67
55 68
55 72
55 73
55 78
55 81
55 82
55 83
55 85
55 87
55 88
55 91
55 92
55 93
55 94
55 96
55 97
55 98
55 99
55 101
55 102
55 103
55 104
55 110
55 113
55 116
55 117
55 123
56 57
56 58
56 60
56 61
56 62
56 64
56 67
56 69
56 74
56 76
56 77
56 82
56 83
56 84
56 86
56 88
56 91
56 93
56 94
56 95
56 96
56 97
56 100
56 101
56 105
56 106
56 109
56 114
56 116
56 119
56 121
56 122
56 123
56 124
57 61
57 64
57 69
57 74
57 76
57 93
57 95
57 96
57 98
57 100
57 101
57 105
57 106
57 116
57 122
57 124
58 59
58 61
58 65
58 67
58 82
58 83
58 87
58 88
58 93
58 94
58 96
58 98
58 99
58 101
58 104
58 110
58 116
58 121
58 122
58 123
58 124
59 61
59 65
59 66
59 67
59 68
59 70
59 74
59 87
59 88
59 89
59 94
59 96
59 100
59 106
59 118
59 122
60 61
60 62
60 64
60 67
60 69
60 75
60 76
60 78
60 84
60 85
60 88
60 96
60 97
60 98
60 101
60 104
60 105
60 107
60 108
60 116
60 121
60 122
61 67
61 72
61 73
61 74
61 78
61 80
61 82
61 83
61 84
61 85
61 86
61 87
61 90
61 91
61 93
61 94
61 105
61 106
61 108
61 109
61 110
61 111
61 114
61 115
61 116
61 117
61 119
61 121
61 122
61 123
62 63
62 67
62 73
62 74
62 77
62 82
62 83
62 84
62 87
62 91
62 93
62 94
62 96
62 97
62 98
62 100
62 101
62 103
62 105
62 108
62 113
62 116
62 120
62 121
62 123
62 124
63 66
63 68
63 70
63 89
63 107
64 67
64 69
64 74
64 82
64 88
64 93
64 95
64 96
64 97
64 100
64 101
64 106
64 107
64 121
64 122
64 124
65 66
65 68
65 70
65 72
65 74
65 82
65 83
65 86
65 87
65 88
65 89
65 91
65 93
65 94
65 96
65 98
65 106
65 108
65 110
65 114
65 116
65 118
65 122
65 123
65 124
66 68
66 70
66 81
66 82
66 88
66 98
66 104
66 110
67 68
67 72
67 78
67 81
67 82
67 83
67 84
67 85
67 87
67 91
67 93
67 94
67 96
67 98
67 101
67 103
67 104
67 105
67 110
67 113
67 115
67 116
67 117
67 122
67 123
67 124
68 70
68 71
68 72
68 83
68 86
68 87
68 98
68 101
68 104
68 105
68 108
68 109
68 110
68 111
68 114
68 116
68 119
68 121
69 74
69 95
69 96
69 100
69 106
69 122
69 124
70 89
70 93
71 73
71 74
71 78
71 84
71 85
71 87
71 88
71 92
71 102
71 103
71 104
71 105
71 111
71 117
71 118
71 119
71 120
71 121
71 123
72 73
72 78
72 81
72 82
72 83
72 84
72 85
72 86
72 87
72 88
72 91
72 92
72 93
72 94
72 98
72 104
72 105
72 109
72 110
72 113
72 114
72 115
72 116
72 117
72 120
72 121
73 77
73 78
73 83
73 84
73 85
73 87
73 90
73 92
73 97
73 98
73 101
73 102
73 103
73 104
73 105
73 108
73 111
73 117
73 119
73 120
73 121
73 123
74 77
74 82
74 83
74 88
74 93
74 94
74 95
74 96
74 100
74 101
74 105
74 106
74 108
74 110
74 113
74 116
74 121
74 122
74 124
75 83
75 84
75 105
76 103
76 105
76 106
76 107
76 115
77 78
77 83
77 84
77 85
77 88
77 92
77 104
77 111
77 116
77 121
77 122
78 81
78 84
78 85
78 86
78 88
78 92
78 97
78 98
78 102
78 103
78 105
78 108
78 109
78 110
78 111
78 113
78 114
78 116
78 117
78 119
78 121
78 123
79 108
80 90
80 108
81 82
81 85
81 86
81 87
81 88
81 91
81 93
81 94
81 103
81 104
81 107
81 109
81 114
81 117
81 122
81 123
82 83
82 84
82 87
82 91
82 93
82 94
82 96
82 97
82 98
82 101
82 103
82 104
82 105
82 110
82 113
82 115
82 116
82 117
82 118
82 122
82 123
82 124
83 84
83 88
83 90
83 91
83 93
83 94
83 97
83 98
83 101
83 103
83 104
83 105
83 106
83 108
83 110
83 111
83 112
83 113
83 116
83 120
83 121
83 122
83 123
83 124
84 85
84 87
84 88
84 90
84 94
84 97
84 103
84 104
84 105
84 108
84 111
84 112
84 116
84 117
84 119
84 120
84 123
84 124
85 86
85 88
85 92
85 97
85 98
85 102
85 103
85 105
85 108
85 109
85 110
85 111
85 113
85 114
85 116
85 117
85 119
85 121
85 123
86 88
86 91
86 94
86 102
86 109
86 110
86 113
86 114
86 115
86 117
86 118
86 121
86 122
86 124
87 88
87 91
87 93
87 94
87 98
87 101
87 102
87 103
87 104
87 106
87 110
87 113
87 115
87 116
87 117
87 118
87 121
87 123
87 124
88 93
88 94
88 95
88 96
88 97
88 98
88 100
88 103
88 104
88 106
88 107
88 109
88 110
88 114
88 116
88 118
88 122
88 123
88 124
90 97
90 108
90 119
90 121
90 123
91 94
91 98
91 101
91 102
91 103
91 105
91 109
91 110
91 113
91 114
91 115
91 116
91 117
91 120
92 105
92 111
92 116
92 118
92 119
92 121
92 123
93 94
93 97
93 98
93 99
93 101
93 103
93 104
93 106
93 108
93 116
93 117
93 118
93 122
94 98
94 101
94 102
94 103
94 105
94 109
94 110
94 113
94 114
94 115
94 116
94 117
94 120
94 124
95 96
95 97
95 100
95 106
95 122
95 124
96 97
96 100
96 106
96 107
96 121
96 122
96 124
97 104
97 105
97 106
97 108
97 111
97 112
97 116
97 118
97 119
97 120
97 121
97 122
97 123
97 124
98 99
98 100
98 101
98 103
98 104
98 110
98 113
98 116
98 119
98 123
99 101
99 104
99 119
100 105
100 106
100 122
100 124
101 103
101 104
101 106
101 111
101 113
101 116
101 117
101 119
101 122
101 123
101 124
102 103
102 109
102 110
102 112
102 114
102 115
102 117
102 121
102 123
103 104
103 110
103 111
103 115
103 117
103 118
103 119
103 120
103 121
103 123
104 105
104 110
104 111
104 113
104 116
104 117
104 118
104 119
104 120
104 123
105 106
105 110
105 111
105 113
105 116
105 117
105 119
105 121
105 122
105 124
106 108
106 121
106 122
106 124
108 111
108 112
108 115
108 118
108 119
108 121
108 123
109 110
109 113
109 114
109 115
109 121
109 122
110 113
110 114
110 115
110 122
110 124
111 112
111 119
111 120
111 121
111 123
112 119
112 120
112 121
113 114
113 115
113 122
113 124
114 115
114 117
114 118
114 121
114 122
114 124
116 117
116 121
116 123
116 124
117 119
117 121
117 122
117 123
118 123
119 120
119 121
120 121
121 123
121 124
122 123
122 124
